# Objective value = 4823.53
I_0_0 1251
I_0_1 1762
I_0_2 1524
I_0_3 1738
I_0_4 1569
I_0_5 1480
I_0_6 1991
I_1_0 51
I_1_1 0
I_1_2 51
I_1_3 0
I_1_4 51
I_1_5 5.0999999999999993e+01
I_1_6 0
I_2_0 78
I_2_1 0
I_2_2 78
I_2_3 0
I_2_4 78
I_2_5 78
I_2_6 0
I_3_0 12
I_3_1 0
I_3_2 12
I_3_3 0
I_3_4 12
I_3_5 1.1999999999999998e+01
I_3_6 0
I_4_0 10
I_4_1 0
I_4_2 10
I_4_3 0
I_4_4 10
I_4_5 10
I_4_6 0
I_5_0 150
I_5_1 75
I_5_2 75
I_5_3 0
I_5_4 0
I_5_5 75
I_5_6 0
I_6_0 69
I_6_1 0
I_6_2 69
I_6_3 0
I_6_4 0
I_6_5 69
I_6_6 0
I_7_0 19
I_7_1 0
I_7_2 19
I_7_3 0
I_7_4 19
I_7_5 19
I_7_6 0
I_8_0 110
I_8_1 55
I_8_2 110
I_8_3 55
I_8_4 110
I_8_5 5.4999999999999993e+01
I_8_6 -7.1054273576010019e-15
I_9_0 198
I_9_1 99
I_9_2 0
I_9_3 198
I_9_4 99
I_9_5 99
I_9_6 0
I_10_0 43
I_10_1 0
I_10_2 43
I_10_3 0
I_10_4 43
I_10_5 43
I_10_6 0
q_1_0 0
q_1_1 102
q_1_2 0
q_1_3 102
q_1_4 5.0999999999999993e+01
q_1_5 7.1054273576010019e-15
q_2_0 0
q_2_1 156
q_2_2 0
q_2_3 156
q_2_4 78
q_2_5 0
q_3_0 0
q_3_1 24
q_3_2 0
q_3_3 24
q_3_4 1.1999999999999998e+01
q_3_5 1.7763568394002505e-15
q_4_0 0
q_4_1 20
q_4_2 0
q_4_3 20
q_4_4 10
q_4_5 0
q_5_0 0
q_5_1 75
q_5_2 0
q_5_3 75
q_5_4 150
q_5_5 0
q_6_0 0
q_6_1 138
q_6_2 0
q_6_3 69
q_6_4 138
q_6_5 0
q_7_0 0
q_7_1 38
q_7_2 0
q_7_3 38
q_7_4 19
q_7_5 0
q_8_0 0
q_8_1 110
q_8_2 0
q_8_3 110
q_8_4 -7.1054273576010019e-15
q_8_5 0
q_9_0 0
q_9_1 0
q_9_2 297
q_9_3 0
q_9_4 99
q_9_5 0
q_10_0 0
q_10_1 86
q_10_2 0
q_10_3 86
q_10_4 43
q_10_5 0
y_0_0 0
y_0_1 1
y_0_2 1
y_0_3 1
y_0_4 1
y_0_5 0
y_1_0 0
y_1_1 1.0000000000000004e+00
y_1_2 0
y_1_3 1
y_1_4 1
y_1_5 0
y_2_0 0
y_2_1 1
y_2_2 0
y_2_3 1
y_2_4 1
y_2_5 0
y_3_0 0
y_3_1 1
y_3_2 0
y_3_3 1
y_3_4 1
y_3_5 0
y_4_0 0
y_4_1 1.0000000000000002e+00
y_4_2 0
y_4_3 1
y_4_4 1
y_4_5 0
y_5_0 0
y_5_1 1
y_5_2 0
y_5_3 1
y_5_4 1
y_5_5 0
y_6_0 0
y_6_1 1
y_6_2 0
y_6_3 1
y_6_4 1
y_6_5 0
y_7_0 0
y_7_1 1
y_7_2 0
y_7_3 1
y_7_4 1
y_7_5 0
y_8_0 0
y_8_1 1
y_8_2 0
y_8_3 1
y_8_4 -5.5511151231257827e-17
y_8_5 0
y_9_0 0
y_9_1 1
y_9_2 1
y_9_3 0
y_9_4 1
y_9_5 0
y_10_0 0
y_10_1 1
y_10_2 0
y_10_3 1
y_10_4 1
y_10_5 0
x_0_1_0 0
x_0_1_1 0
x_0_1_2 0
x_0_1_3 0
x_0_1_4 0
x_0_1_5 0
x_0_2_0 0
x_0_2_1 0
x_0_2_2 0
x_0_2_3 0
x_0_2_4 0
x_0_2_5 0
x_0_3_0 0
x_0_3_1 0
x_0_3_2 0
x_0_3_3 0
x_0_3_4 0
x_0_3_5 0
x_0_4_0 0
x_0_4_1 0
x_0_4_2 0
x_0_4_3 0
x_0_4_4 0
x_0_4_5 0
x_0_5_0 0
x_0_5_1 0
x_0_5_2 0
x_0_5_3 0
x_0_5_4 0
x_0_5_5 0
x_0_6_0 0
x_0_6_1 9.9999999999999956e-01
x_0_6_2 0
x_0_6_3 1
x_0_6_4 1
x_0_6_5 0
x_0_7_0 0
x_0_7_1 0
x_0_7_2 0
x_0_7_3 1
x_0_7_4 0
x_0_7_5 0
x_0_8_0 0
x_0_8_1 0
x_0_8_2 0
x_0_8_3 0
x_0_8_4 0
x_0_8_5 0
x_0_9_0 0
x_0_9_1 1.0000000000000002e+00
x_0_9_2 2
x_0_9_3 0
x_0_9_4 1
x_0_9_5 0
x_0_10_0 0
x_0_10_1 0
x_0_10_2 0
x_0_10_3 0
x_0_10_4 0
x_0_10_5 0
x_1_2_0 0
x_1_2_1 0
x_1_2_2 0
x_1_2_3 0
x_1_2_4 0
x_1_2_5 0
x_1_3_0 0
x_1_3_1 1.0000000000000009e+00
x_1_3_2 0
x_1_3_3 1
x_1_3_4 1
x_1_3_5 0
x_1_4_0 0
x_1_4_1 0
x_1_4_2 0
x_1_4_3 0
x_1_4_4 0
x_1_4_5 0
x_1_5_0 0
x_1_5_1 1
x_1_5_2 0
x_1_5_3 1
x_1_5_4 1
x_1_5_5 0
x_1_6_0 0
x_1_6_1 0
x_1_6_2 0
x_1_6_3 0
x_1_6_4 0
x_1_6_5 0
x_1_7_0 0
x_1_7_1 0
x_1_7_2 0
x_1_7_3 0
x_1_7_4 0
x_1_7_5 0
x_1_8_0 0
x_1_8_1 0
x_1_8_2 0
x_1_8_3 0
x_1_8_4 0
x_1_8_5 0
x_1_9_0 0
x_1_9_1 0
x_1_9_2 0
x_1_9_3 0
x_1_9_4 0
x_1_9_5 0
x_1_10_0 0
x_1_10_1 0
x_1_10_2 0
x_1_10_3 0
x_1_10_4 0
x_1_10_5 0
x_2_3_0 0
x_2_3_1 0
x_2_3_2 0
x_2_3_3 0
x_2_3_4 0
x_2_3_5 0
x_2_4_0 0
x_2_4_1 1
x_2_4_2 0
x_2_4_3 9.9999999999999978e-01
x_2_4_4 1
x_2_4_5 0
x_2_5_0 0
x_2_5_1 0
x_2_5_2 0
x_2_5_3 0
x_2_5_4 0
x_2_5_5 0
x_2_6_0 0
x_2_6_1 0
x_2_6_2 0
x_2_6_3 0
x_2_6_4 0
x_2_6_5 0
x_2_7_0 0
x_2_7_1 0
x_2_7_2 0
x_2_7_3 0
x_2_7_4 0
x_2_7_5 0
x_2_8_0 0
x_2_8_1 0
x_2_8_2 0
x_2_8_3 0
x_2_8_4 0
x_2_8_5 0
x_2_9_0 0
x_2_9_1 0
x_2_9_2 0
x_2_9_3 0
x_2_9_4 0
x_2_9_5 0
x_2_10_0 0
x_2_10_1 1.0000000000000002e+00
x_2_10_2 0
x_2_10_3 1.0000000000000004e+00
x_2_10_4 1
x_2_10_5 0
x_3_4_0 0
x_3_4_1 0
x_3_4_2 0
x_3_4_3 0
x_3_4_4 0
x_3_4_5 0
x_3_5_0 0
x_3_5_1 0
x_3_5_2 0
x_3_5_3 0
x_3_5_4 0
x_3_5_5 0
x_3_6_0 0
x_3_6_1 0
x_3_6_2 0
x_3_6_3 0
x_3_6_4 0
x_3_6_5 0
x_3_7_0 0
x_3_7_1 0
x_3_7_2 0
x_3_7_3 0
x_3_7_4 0
x_3_7_5 0
x_3_8_0 0
x_3_8_1 9.9999999999999911e-01
x_3_8_2 0
x_3_8_3 1.0000000000000002e+00
x_3_8_4 -1.1102230246251565e-16
x_3_8_5 0
x_3_9_0 0
x_3_9_1 0
x_3_9_2 0
x_3_9_3 0
x_3_9_4 0
x_3_9_5 0
x_3_10_0 0
x_3_10_1 0
x_3_10_2 0
x_3_10_3 -2.2204460492503131e-16
x_3_10_4 1
x_3_10_5 0
x_4_5_0 0
x_4_5_1 0
x_4_5_2 0
x_4_5_3 0
x_4_5_4 0
x_4_5_5 0
x_4_6_0 0
x_4_6_1 1.0000000000000004e+00
x_4_6_2 0
x_4_6_3 1
x_4_6_4 1
x_4_6_5 0
x_4_7_0 0
x_4_7_1 0
x_4_7_2 0
x_4_7_3 0
x_4_7_4 0
x_4_7_5 0
x_4_8_0 0
x_4_8_1 0
x_4_8_2 0
x_4_8_3 0
x_4_8_4 0
x_4_8_5 0
x_4_9_0 0
x_4_9_1 0
x_4_9_2 0
x_4_9_3 0
x_4_9_4 0
x_4_9_5 0
x_4_10_0 0
x_4_10_1 0
x_4_10_2 0
x_4_10_3 0
x_4_10_4 0
x_4_10_5 0
x_5_6_0 0
x_5_6_1 0
x_5_6_2 0
x_5_6_3 0
x_5_6_4 0
x_5_6_5 0
x_5_7_0 0
x_5_7_1 1
x_5_7_2 0
x_5_7_3 1
x_5_7_4 1
x_5_7_5 0
x_5_8_0 0
x_5_8_1 0
x_5_8_2 0
x_5_8_3 0
x_5_8_4 0
x_5_8_5 0
x_5_9_0 0
x_5_9_1 0
x_5_9_2 0
x_5_9_3 0
x_5_9_4 0
x_5_9_5 0
x_5_10_0 0
x_5_10_1 0
x_5_10_2 0
x_5_10_3 0
x_5_10_4 0
x_5_10_5 0
x_6_7_0 0
x_6_7_1 0
x_6_7_2 0
x_6_7_3 0
x_6_7_4 0
x_6_7_5 0
x_6_8_0 0
x_6_8_1 0
x_6_8_2 0
x_6_8_3 0
x_6_8_4 0
x_6_8_5 0
x_6_9_0 0
x_6_9_1 0
x_6_9_2 0
x_6_9_3 0
x_6_9_4 0
x_6_9_5 0
x_6_10_0 0
x_6_10_1 0
x_6_10_2 0
x_6_10_3 0
x_6_10_4 0
x_6_10_5 0
x_7_8_0 0
x_7_8_1 0
x_7_8_2 0
x_7_8_3 0
x_7_8_4 0
x_7_8_5 0
x_7_9_0 0
x_7_9_1 9.9999999999999978e-01
x_7_9_2 0
x_7_9_3 0
x_7_9_4 1
x_7_9_5 0
x_7_10_0 0
x_7_10_1 0
x_7_10_2 0
x_7_10_3 0
x_7_10_4 0
x_7_10_5 0
x_8_9_0 0
x_8_9_1 0
x_8_9_2 0
x_8_9_3 0
x_8_9_4 0
x_8_9_5 0
x_8_10_0 0
x_8_10_1 1
x_8_10_2 0
x_8_10_3 9.9999999999999978e-01
x_8_10_4 -1.1102230246251565e-16
x_8_10_5 0
x_9_10_0 0
x_9_10_1 0
x_9_10_2 0
x_9_10_3 0
x_9_10_4 0
x_9_10_5 0
